This is Ipopt version 3.13.4, running with linear solver mumps.
NOTE: Other linear solvers might be more efficient (see Ipopt documentation).

Number of nonzeros in equality constraint Jacobian...:     1120
Number of nonzeros in inequality constraint Jacobian.:        0
Number of nonzeros in Lagrangian Hessian.............:        0

Total number of variables............................:       70
                     variables with only lower bounds:        0
                variables with lower and upper bounds:       64
                     variables with only upper bounds:        0
Total number of equality constraints.................:       16
Total number of inequality constraints...............:        0
        inequality constraints with only lower bounds:        0
   inequality constraints with lower and upper bounds:        0
        inequality constraints with only upper bounds:        0

iter    objective    inf_pr   inf_du lg(mu)  ||d||  lg(rg) alpha_du alpha_pr  ls
   0  1.0000000e+00 5.78e-03 0.00e+00   0.0 0.00e+00    -  0.00e+00 0.00e+00   0
   1  1.0000000e+00 2.27e+00 1.76e+04  -1.5 3.00e+00    -  9.63e-01 1.00e+00f  1
   2  1.0000000e+00 2.77e+00 7.41e+03  -1.0 6.77e-01    -  1.00e+00 1.00e+00f  1
   3  1.0000000e+00 4.44e+00 1.36e+05  -1.0 3.90e-01    -  1.00e+00 1.00e+00h  1
